p cnf 14 64
5 10 11 0
3 5 -13 0
1 7 -9 0
8 9 -10 0
3 -6 11 0
4 -6 14 0
1 -6 13 0
-4 -6 14 0
6 11 -12 0
2 -11 -13 0
-2 -4 -14 0
2 12 13 0
1 7 -11 0
-2 4 -5 0
-7 10 -14 0
-2 -4 -7 0
3 -9 11 0
-2 -6 11 0
-2 -5 12 0
2 -5 14 0
5 -13 14 0
1 -5 -14 0
5 6 9 0
8 -10 11 0
-9 -11 -12 0
-1 4 5 0
-2 6 -12 0
2 -11 12 0
7 -9 14 0
-1 -2 13 0
4 -7 13 0
1 10 12 0
2 8 -13 0
-4 6 -7 0
-2 3 10 0
2 8 12 0
-2 6 -13 0
-8 -11 14 0
-1 -5 7 0
-1 -9 12 0
-1 -3 6 0
2 9 -12 0
-7 9 13 0
1 6 -14 0
-3 7 -14 0
-2 -5 14 0
-9 -12 -14 0
-4 -5 9 0
-1 -10 -11 0
-5 -13 14 0
-5 7 12 0
2 7 -11 0
1 5 12 0
2 3 -4 0
4 10 -12 0
-1 4 -9 0
-9 10 14 0
1 4 7 0
6 -7 9 0
-5 -7 11 0
-4 7 -14 0
-1 -7 -12 0
6 10 12 0
5 11 12 0
